; benchmark generated from python API
(set-info :status unknown)
(declare-fun A_0 () Real)
(declare-fun S_0 () Real)
(declare-fun L_0 () Real)
(declare-fun L0 () Real)
(declare-fun C () Real)
(declare-fun B () Real)
(declare-fun A_4 () Real)
(declare-fun S_4 () Real)
(declare-fun L_2 () Real)
(declare-fun L_1 () Real)
(declare-fun S_2 () Real)
(declare-fun S_3 () Real)
(declare-fun S_1 () Real)
(declare-fun A_1 () Real)
(declare-fun A_2 () Real)
(declare-fun A_3 () Real)
(declare-fun L_3 () Real)
(declare-fun A_5 () Real)
(declare-fun S_5 () Real)
(declare-fun L_5 () Real)
(assert
 (let (($x42 (>= L0 0.0)))
 (let (($x879 (>= C 5.0)))
 (let (($x830 (>= B 5.0)))
 (let (($x1513 (not (<= (+ A_4 (* (- 1.0) L_2)) S_4))))
 (let (($x962 (not (<= L_2 L_1))))
 (let (($x959 (not (<= L_1 L_0))))
 (let (($x14877 (or $x959 $x962 $x1513 (<= (+ (* (- 4.0) C) A_4 (* (- 1.0) A_0)) 0.0))))
 (let ((?x381 (* (- 1.0) L_1)))
 (let ((?x1026 (+ A_2 ?x381)))
 (let (($x2838 (>= S_3 ?x1026)))
 (let (($x15074 (or $x2838 (<= (+ C A_1 (* (- 1.0) L_0) (* (- 1.0) S_3)) 0.0) (<= (+ (* 2.0 C) S_0 (* (- 1.0) S_3)) 0.0))))
 (let (($x9662 (<= (+ (* (- 4.0) C) A_4 (* (- 1.0) L_0) (* (- 1.0) S_1)) 0.0)))
 (let (($x9668 (<= (+ (* (- 5.0) C) A_4 (* (- 1.0) L_0) (* (- 1.0) S_0)) 0.0)))
 (let (($x14825 (or $x962 $x1513 (<= (+ (* (- 3.0) C) A_4 (* (- 1.0) A_1)) 0.0))))
 (let (($x9655 (<= (+ (* (- 3.0) C) A_4 (* (- 1.0) L_0) (* (- 1.0) S_2)) 0.0)))
 (let (($x9673 (<= (+ (* (- 2.0) C) A_4 (* (- 1.0) L_0) (* (- 1.0) S_3)) 0.0)))
 (let (($x1956 (= L_2 L_0)))
 (let (($x1547 (not (= L_0 L_1))))
 (let (($x9649 (or $x1547 $x1956 (<= (+ A_1 (* (- 1.0) L_0) L_2 (* (- 1.0) A_2) C) 0.0))))
 (let (($x9411 (<= 0.0 (+ C L_0 (* (- 1.0) A_1) S_0))))
 (let (($x9480 (not $x9411)))
 (let (($x9341 (<= (+ A_2 (* (- 1.0) L_0) L_3 (* (- 1.0) A_3) C) 0.0)))
 (let ((?x873 (* (- 2.0) C)))
 (let ((?x282 (* (- 1.0) L_3)))
 (let ((?x620 (* (- 1.0) B)))
 (let ((?x9271 (+ ?x620 ?x282 A_3 ?x873)))
 (let ((?x680 (* (- 1.0) L_0)))
 (let ((?x1011 (+ A_1 ?x680)))
 (let (($x9304 (<= ?x1011 ?x9271)))
 (let ((?x300 (* (- 1.0) C)))
 (let ((?x9273 (+ ?x620 ?x282 A_3 ?x300)))
 (let (($x9274 (<= (+ A_2 ?x680) ?x9273)))
 (let (($x3266 (= L_3 L_0)))
 (let ((?x1658 (* (- 3.0) C)))
 (let ((?x9309 (+ ?x620 ?x282 A_3 ?x1658)))
 (let (($x9319 (<= S_0 ?x9309)))
 (let (($x3249 (not (= L_0 L_2))))
 (let (($x15190 (or $x3249 $x3266 $x9274 $x9319 (not (<= (+ A_2 (* (- 1.0) A_1) ?x300) 0.0)))))
 (let ((?x333 (* (- 1.0) L_2)))
 (let ((?x518 (+ ?x620 ?x333 A_2 ?x300)))
 (let (($x408 (<= ?x1011 ?x518)))
 (let (($x79 (= L_3 L_2)))
 (let (($x14528 (or $x79 $x408 $x9319 (not (= L_3 (+ A_3 (* (- 1.0) A_2) L_2 ?x300))))))
 (let (($x14517 (or $x79 $x1547 $x9274 (<= (+ A_1 ?x680 L_3 (* (- 1.0) A_3) (* 2.0 C)) 0.0))))
 (let (($x14577 (or (not $x9304) (= (+ (* 2.0 C) B L_3 ?x680 (* (- 1.0) A_3) A_1) 0.0))))
 (let ((?x576 (* (- 1.0) A_2)))
 (let ((?x9169 (+ A_3 ?x576 ?x300)))
 (let (($x9170 (<= ?x9169 0.0)))
 (let (($x1482 (not (= L_2 L_3))))
 (let (($x69 (= L_2 L_1)))
 (let (($x59 (= L_1 L_0)))
 (let (($x9096 (<= A_2 (+ A_1 ?x620 C))))
 (let (($x9192 (not $x9096)))
 (let ((?x9185 (+ A_2 ?x381 C)))
 (let ((?x1797 (+ A_3 ?x282 ?x620)))
 (let (($x9186 (= ?x1797 ?x9185)))
 (let (($x14936 (or $x9186 $x9192 (not (= (+ A_1 ?x381 (* 2.0 C)) (+ A_3 ?x282))))))
 (let ((?x915 (* 2.0 C)))
 (let ((?x9102 (+ A_1 ?x381 ?x915)))
 (let ((?x301 (+ A_3 ?x282)))
 (let (($x9103 (= ?x301 ?x9102)))
 (let (($x1376 (not (= L_1 L_2))))
 (let (($x1318 (= L_3 L_1)))
 (let (($x411 (= L_5 L_3)))
 (let (($x41 (>= L_0 L0)))
 (let (($x131 (>= S_1 S_0)))
 (let (($x134 (>= S_2 S_1)))
 (let (($x137 (>= S_3 S_2)))
 (let (($x143 (>= S_5 S_4)))
 (let (($x145 (>= A_1 A_0)))
 (let (($x146 (>= A_2 A_1)))
 (let (($x147 (>= A_3 A_2)))
 (let (($x148 (>= A_4 A_3)))
 (and $x148 $x147 $x146 $x145 $x143 $x137 $x134 $x131 $x41 (or $x411 (<= S_5 (+ A_5 (* (- 1.0) L_5) ?x620))) (or $x59 (<= S_1 (+ A_1 ?x381 ?x620))) (>= S_3 (+ A_2 ?x333 ?x620)) (<= S_4 (+ A_4 ?x282)) (<= (+ A_4 ?x282) S_4) (or $x411 (not (<= L_5 L_3))) (or $x69 $x962) (>= S_2 ?x518) (or $x69 (<= S_1 ?x518)) (or $x69 (<= S_0 (+ ?x620 ?x333 A_2 ?x873)) $x408) (or $x69 (<= S_2 (+ A_2 ?x333 ?x620))) (>= S_2 (+ A_1 ?x381 ?x620)) (<= (+ ?x620 ?x381 A_1 ?x300) (+ A_0 ?x680)) (or $x411 (= (+ A_5 (* (- 1.0) L_5) ?x620) (+ A_4 ?x282 C))) (>= S_0 (+ ?x620 ?x381 A_1 ?x873)) (>= S_1 (+ ?x620 ?x381 A_1 ?x300)) (or $x69 $x79 (= L_3 (+ A_3 ?x576 L_2 ?x300))) (or $x59 $x69 (= (+ A_2 ?x333) (+ A_1 ?x381 C))) (or (not (= L_3 L_5)) (<= (+ A_5 (* (- 1.0) A_4) ?x300) B)) (<= S_5 (+ A_4 ?x282 C)) (or $x59 (<= S_0 (+ ?x620 ?x381 A_1 ?x300))) (or $x79 (<= A_4 (+ A_3 ?x620 C))) (or $x79 (<= S_3 ?x1797)) (or $x59 $x79 $x9096 $x9103) (<= (+ ?x620 ?x333 A_2 ?x873) (+ A_0 ?x680)) (or $x59 $x959) (or $x9096 (>= S_3 (+ A_1 ?x381 ?x620 C))) (or $x59 $x1376 (<= (+ A_2 (* (- 1.0) A_1) ?x300) 0.0)) (or $x69 (<= (+ A_4 ?x282) (+ A_2 ?x333 ?x620 ?x915))) (<= S_5 (+ A_5 ?x282)) (<= S_4 (+ A_4 ?x333)) (or $x59 (<= S_2 (+ A_1 ?x381 ?x620 C))) (or $x59 $x1318 $x1376 $x9103 $x9186) $x14936 (<= S_3 (+ A_3 ?x333)) (or $x2838 $x9192) (<= A_4 (+ A_3 C)) (or (not (= L_1 L_3)) (<= ?x9169 B)) (or $x59 $x1482 $x9170 (<= (+ A_3 (* (- 1.0) A_1) ?x873) 0.0)) (or $x59 (<= S_3 (+ A_1 ?x381 ?x620 ?x915))) (or $x59 $x962 $x1513 (<= A_4 (+ A_1 ?x620 (* 3.0 C)))) (<= (+ (* (- 1.0) A_1) L_0 S_1) 0.0) (or (not $x408) (= (+ C A_1 ?x576 L_2 B ?x680) 0.0)) (<= S_2 ?x1026) (or $x69 (<= S_3 (+ A_2 ?x333 ?x620 C))) (or $x69 $x1482 $x9170) (>= S_0 (+ ?x620 ?x333 A_2 ?x1658)) (>= S_1 (+ ?x620 ?x333 A_2 ?x873)) (or $x79 (<= S_2 ?x9273)) (>= S_3 ?x9273) (or $x959 $x1318 $x1376 $x9341) (>= S_2 ?x9271) (or (= ?x1797 (+ A_2 ?x680 C)) (not $x9274)) (<= (+ ?x300 L_0 S_1 (* (- 1.0) A_0)) 0.0) (<= ?x9309 (+ A_0 ?x680)) $x14577 (>= S_0 (+ ?x620 ?x282 A_3 (* (- 4.0) C))) (>= S_1 ?x9309) (or (<= (+ C S_0 (* (- 1.0) S_2)) 0.0) $x9411) (or (<= (+ A_1 ?x680 (* (- 1.0) S_2)) 0.0) $x9480) (<= (+ ?x873 S_1 (* (- 1.0) S_0)) 0.0) $x14517 (or $x79 $x959 $x9274 (<= S_1 ?x9271)) $x14528 $x15190 (or $x3249 $x3266 $x9274 $x9319 $x9411) (or $x3266 $x9274 $x9304 (not $x9341) $x9480) (<= (+ ?x300 (* (- 1.0) A_1) L_0 S_2) 0.0) $x9649 (<= (+ ?x873 S_3 (* (- 1.0) S_2)) 0.0) (or $x959 $x962 $x1513 $x9673) (or $x959 $x962 $x1513 $x9655) (<= S_3 ?x9185) (or $x2838 (<= (+ C S_1 (* (- 1.0) S_3)) 0.0)) (<= (+ ?x873 L_0 (* (- 1.0) A_1) S_3) 0.0) $x14825 (<= (+ ?x1658 (* (- 1.0) S_0) S_2) 0.0) (<= (+ (* (- 4.0) C) (* (- 1.0) S_0) S_3) 0.0) (or $x959 $x962 $x1513 $x9668) (or $x1513 (<= A_4 (+ A_2 ?x915))) (or $x959 $x962 $x1513 $x9662) $x15074 (<= (+ ?x873 (* (- 1.0) S_1) S_2) 0.0) (<= (+ ?x1658 (* (- 1.0) S_1) S_3) 0.0) (<= (+ ?x1658 L_0 (* (- 1.0) A_0) S_3) 0.0) (<= (+ ?x873 L_0 (* (- 1.0) A_0) S_2) 0.0) $x14877 $x830 $x879 $x42 (<= (+ L_0 S_0 (* (- 1.0) A_0)) 0.0))))))))))))))))))))))))))))))))))))))))))))))))))))))))))))))))))))))))))))
(check-sat)
